param set_len = 24;
param target := 969565695;
param values := [1] 133569680 [2] 65289749 [3] 120663506 [4] 4725561 [5] 31892699 [6] 99876750 [7] 77302030 [8] 62715979 [9] 2167681 [10] 122466121 [11] 103422154 [12] 82665145 [13] 65624943 [14] 96359851 [15] 111966190 [16] 77973500 [17] 53933495 [18] 508434 [19] 76932701 [20] 66243907 [21] 78303119 [22] 43170824 [23] 70428802 [24] 132652976 ;
